c map8.map
p cnf 1320 2185
+1 4 +1 70 +1 136 +1 202 +1 268 +1 334 +1 400 +1 466 +1 532 +1 598 +1 664 +1 730 +1 796 +1 862 +1 928 +1 994 +1 1060 +1 1126 +1 1192 +1 1258 +1 10 +1 76 +1 142 +1 208 +1 274 +1 340 +1 406 +1 472 +1 538 +1 604 +1 670 +1 736 +1 802 +1 868 +1 934 +1 1000 +1 1066 +1 1132 +1 1198 +1 1264 +1 16 +1 82 +1 148 +1 214 +1 280 +1 346 +1 412 +1 478 +1 544 +1 610 +1 676 +1 742 +1 808 +1 874 +1 940 +1 1006 +1 1072 +1 1138 +1 1204 +1 1270 +1 22 +1 88 +1 154 +1 220 +1 286 +1 352 +1 418 +1 484 +1 550 +1 616 +1 682 +1 748 +1 814 +1 880 +1 946 +1 1012 +1 1078 +1 1144 +1 1210 +1 1276 +1 28 +1 94 +1 160 +1 226 +1 292 +1 358 +1 424 +1 490 +1 556 +1 622 +1 688 +1 754 +1 820 +1 886 +1 952 +1 1018 +1 1084 +1 1150 +1 1216 +1 1282 +1 34 +1 100 +1 166 +1 232 +1 298 +1 364 +1 430 +1 496 +1 562 +1 628 +1 694 +1 760 +1 826 +1 892 +1 958 +1 1024 +1 1090 +1 1156 +1 1222 +1 1288 +1 40 +1 106 +1 172 +1 238 +1 304 +1 370 +1 436 +1 502 +1 568 +1 634 +1 700 +1 766 +1 832 +1 898 +1 964 +1 1030 +1 1096 +1 1162 +1 1228 +1 1294 +1 46 +1 112 +1 178 +1 244 +1 310 +1 376 +1 442 +1 508 +1 574 +1 640 +1 706 +1 772 +1 838 +1 904 +1 970 +1 1036 +1 1102 +1 1168 +1 1234 +1 1300 +1 52 +1 118 +1 184 +1 250 +1 316 +1 382 +1 448 +1 514 +1 580 +1 646 +1 712 +1 778 +1 844 +1 910 +1 976 +1 1042 +1 1108 +1 1174 +1 1240 +1 1306 +1 58 +1 124 +1 190 +1 256 +1 322 +1 388 +1 454 +1 520 +1 586 +1 652 +1 718 +1 784 +1 850 +1 916 +1 982 +1 1048 +1 1114 +1 1180 +1 1246 +1 1312 +1 64 +1 130 +1 196 +1 262 +1 328 +1 394 +1 460 +1 526 +1 592 +1 658 +1 724 +1 790 +1 856 +1 922 +1 988 +1 1054 +1 1120 +1 1186 +1 1252 +1 1318 = 9; * comptage total de T
+1 5 +1 71 +1 137 +1 203 +1 269 +1 335 +1 401 +1 467 +1 533 +1 599 +1 665 +1 731 +1 797 +1 863 +1 929 +1 995 +1 1061 +1 1127 +1 1193 +1 1259 +1 11 +1 77 +1 143 +1 209 +1 275 +1 341 +1 407 +1 473 +1 539 +1 605 +1 671 +1 737 +1 803 +1 869 +1 935 +1 1001 +1 1067 +1 1133 +1 1199 +1 1265 +1 17 +1 83 +1 149 +1 215 +1 281 +1 347 +1 413 +1 479 +1 545 +1 611 +1 677 +1 743 +1 809 +1 875 +1 941 +1 1007 +1 1073 +1 1139 +1 1205 +1 1271 +1 23 +1 89 +1 155 +1 221 +1 287 +1 353 +1 419 +1 485 +1 551 +1 617 +1 683 +1 749 +1 815 +1 881 +1 947 +1 1013 +1 1079 +1 1145 +1 1211 +1 1277 +1 29 +1 95 +1 161 +1 227 +1 293 +1 359 +1 425 +1 491 +1 557 +1 623 +1 689 +1 755 +1 821 +1 887 +1 953 +1 1019 +1 1085 +1 1151 +1 1217 +1 1283 +1 35 +1 101 +1 167 +1 233 +1 299 +1 365 +1 431 +1 497 +1 563 +1 629 +1 695 +1 761 +1 827 +1 893 +1 959 +1 1025 +1 1091 +1 1157 +1 1223 +1 1289 +1 41 +1 107 +1 173 +1 239 +1 305 +1 371 +1 437 +1 503 +1 569 +1 635 +1 701 +1 767 +1 833 +1 899 +1 965 +1 1031 +1 1097 +1 1163 +1 1229 +1 1295 +1 47 +1 113 +1 179 +1 245 +1 311 +1 377 +1 443 +1 509 +1 575 +1 641 +1 707 +1 773 +1 839 +1 905 +1 971 +1 1037 +1 1103 +1 1169 +1 1235 +1 1301 +1 53 +1 119 +1 185 +1 251 +1 317 +1 383 +1 449 +1 515 +1 581 +1 647 +1 713 +1 779 +1 845 +1 911 +1 977 +1 1043 +1 1109 +1 1175 +1 1241 +1 1307 +1 59 +1 125 +1 191 +1 257 +1 323 +1 389 +1 455 +1 521 +1 587 +1 653 +1 719 +1 785 +1 851 +1 917 +1 983 +1 1049 +1 1115 +1 1181 +1 1247 +1 1313 +1 65 +1 131 +1 197 +1 263 +1 329 +1 395 +1 461 +1 527 +1 593 +1 659 +1 725 +1 791 +1 857 +1 923 +1 989 +1 1055 +1 1121 +1 1187 +1 1253 +1 1319 = 0; * comptage total de S
+1 3 +1 69 +1 135 +1 201 +1 267 +1 333 +1 399 +1 465 +1 531 +1 597 +1 663 +1 729 +1 795 +1 861 +1 927 +1 993 +1 1059 +1 1125 +1 1191 +1 1257 +1 9 +1 75 +1 141 +1 207 +1 273 +1 339 +1 405 +1 471 +1 537 +1 603 +1 669 +1 735 +1 801 +1 867 +1 933 +1 999 +1 1065 +1 1131 +1 1197 +1 1263 +1 15 +1 81 +1 147 +1 213 +1 279 +1 345 +1 411 +1 477 +1 543 +1 609 +1 675 +1 741 +1 807 +1 873 +1 939 +1 1005 +1 1071 +1 1137 +1 1203 +1 1269 +1 21 +1 87 +1 153 +1 219 +1 285 +1 351 +1 417 +1 483 +1 549 +1 615 +1 681 +1 747 +1 813 +1 879 +1 945 +1 1011 +1 1077 +1 1143 +1 1209 +1 1275 +1 27 +1 93 +1 159 +1 225 +1 291 +1 357 +1 423 +1 489 +1 555 +1 621 +1 687 +1 753 +1 819 +1 885 +1 951 +1 1017 +1 1083 +1 1149 +1 1215 +1 1281 +1 33 +1 99 +1 165 +1 231 +1 297 +1 363 +1 429 +1 495 +1 561 +1 627 +1 693 +1 759 +1 825 +1 891 +1 957 +1 1023 +1 1089 +1 1155 +1 1221 +1 1287 +1 39 +1 105 +1 171 +1 237 +1 303 +1 369 +1 435 +1 501 +1 567 +1 633 +1 699 +1 765 +1 831 +1 897 +1 963 +1 1029 +1 1095 +1 1161 +1 1227 +1 1293 +1 45 +1 111 +1 177 +1 243 +1 309 +1 375 +1 441 +1 507 +1 573 +1 639 +1 705 +1 771 +1 837 +1 903 +1 969 +1 1035 +1 1101 +1 1167 +1 1233 +1 1299 +1 51 +1 117 +1 183 +1 249 +1 315 +1 381 +1 447 +1 513 +1 579 +1 645 +1 711 +1 777 +1 843 +1 909 +1 975 +1 1041 +1 1107 +1 1173 +1 1239 +1 1305 +1 57 +1 123 +1 189 +1 255 +1 321 +1 387 +1 453 +1 519 +1 585 +1 651 +1 717 +1 783 +1 849 +1 915 +1 981 +1 1047 +1 1113 +1 1179 +1 1245 +1 1311 +1 63 +1 129 +1 195 +1 261 +1 327 +1 393 +1 459 +1 525 +1 591 +1 657 +1 723 +1 789 +1 855 +1 921 +1 987 +1 1053 +1 1119 +1 1185 +1 1251 +1 1317 = 8; * comptage total de C
+1 1 +1 67 +1 133 +1 199 +1 265 +1 331 +1 397 +1 463 +1 529 +1 595 +1 661 +1 727 +1 793 +1 859 +1 925 +1 991 +1 1057 +1 1123 +1 1189 +1 1255 +1 7 +1 73 +1 139 +1 205 +1 271 +1 337 +1 403 +1 469 +1 535 +1 601 +1 667 +1 733 +1 799 +1 865 +1 931 +1 997 +1 1063 +1 1129 +1 1195 +1 1261 +1 13 +1 79 +1 145 +1 211 +1 277 +1 343 +1 409 +1 475 +1 541 +1 607 +1 673 +1 739 +1 805 +1 871 +1 937 +1 1003 +1 1069 +1 1135 +1 1201 +1 1267 +1 19 +1 85 +1 151 +1 217 +1 283 +1 349 +1 415 +1 481 +1 547 +1 613 +1 679 +1 745 +1 811 +1 877 +1 943 +1 1009 +1 1075 +1 1141 +1 1207 +1 1273 +1 25 +1 91 +1 157 +1 223 +1 289 +1 355 +1 421 +1 487 +1 553 +1 619 +1 685 +1 751 +1 817 +1 883 +1 949 +1 1015 +1 1081 +1 1147 +1 1213 +1 1279 +1 31 +1 97 +1 163 +1 229 +1 295 +1 361 +1 427 +1 493 +1 559 +1 625 +1 691 +1 757 +1 823 +1 889 +1 955 +1 1021 +1 1087 +1 1153 +1 1219 +1 1285 +1 37 +1 103 +1 169 +1 235 +1 301 +1 367 +1 433 +1 499 +1 565 +1 631 +1 697 +1 763 +1 829 +1 895 +1 961 +1 1027 +1 1093 +1 1159 +1 1225 +1 1291 +1 43 +1 109 +1 175 +1 241 +1 307 +1 373 +1 439 +1 505 +1 571 +1 637 +1 703 +1 769 +1 835 +1 901 +1 967 +1 1033 +1 1099 +1 1165 +1 1231 +1 1297 +1 49 +1 115 +1 181 +1 247 +1 313 +1 379 +1 445 +1 511 +1 577 +1 643 +1 709 +1 775 +1 841 +1 907 +1 973 +1 1039 +1 1105 +1 1171 +1 1237 +1 1303 +1 55 +1 121 +1 187 +1 253 +1 319 +1 385 +1 451 +1 517 +1 583 +1 649 +1 715 +1 781 +1 847 +1 913 +1 979 +1 1045 +1 1111 +1 1177 +1 1243 +1 1309 +1 61 +1 127 +1 193 +1 259 +1 325 +1 391 +1 457 +1 523 +1 589 +1 655 +1 721 +1 787 +1 853 +1 919 +1 985 +1 1051 +1 1117 +1 1183 +1 1249 +1 1315 = 0; * comptage total de s
+1 2 +1 68 +1 134 +1 200 +1 266 +1 332 +1 398 +1 464 +1 530 +1 596 +1 662 +1 728 +1 794 +1 860 +1 926 +1 992 +1 1058 +1 1124 +1 1190 +1 1256 +1 8 +1 74 +1 140 +1 206 +1 272 +1 338 +1 404 +1 470 +1 536 +1 602 +1 668 +1 734 +1 800 +1 866 +1 932 +1 998 +1 1064 +1 1130 +1 1196 +1 1262 +1 14 +1 80 +1 146 +1 212 +1 278 +1 344 +1 410 +1 476 +1 542 +1 608 +1 674 +1 740 +1 806 +1 872 +1 938 +1 1004 +1 1070 +1 1136 +1 1202 +1 1268 +1 20 +1 86 +1 152 +1 218 +1 284 +1 350 +1 416 +1 482 +1 548 +1 614 +1 680 +1 746 +1 812 +1 878 +1 944 +1 1010 +1 1076 +1 1142 +1 1208 +1 1274 +1 26 +1 92 +1 158 +1 224 +1 290 +1 356 +1 422 +1 488 +1 554 +1 620 +1 686 +1 752 +1 818 +1 884 +1 950 +1 1016 +1 1082 +1 1148 +1 1214 +1 1280 +1 32 +1 98 +1 164 +1 230 +1 296 +1 362 +1 428 +1 494 +1 560 +1 626 +1 692 +1 758 +1 824 +1 890 +1 956 +1 1022 +1 1088 +1 1154 +1 1220 +1 1286 +1 38 +1 104 +1 170 +1 236 +1 302 +1 368 +1 434 +1 500 +1 566 +1 632 +1 698 +1 764 +1 830 +1 896 +1 962 +1 1028 +1 1094 +1 1160 +1 1226 +1 1292 +1 44 +1 110 +1 176 +1 242 +1 308 +1 374 +1 440 +1 506 +1 572 +1 638 +1 704 +1 770 +1 836 +1 902 +1 968 +1 1034 +1 1100 +1 1166 +1 1232 +1 1298 +1 50 +1 116 +1 182 +1 248 +1 314 +1 380 +1 446 +1 512 +1 578 +1 644 +1 710 +1 776 +1 842 +1 908 +1 974 +1 1040 +1 1106 +1 1172 +1 1238 +1 1304 +1 56 +1 122 +1 188 +1 254 +1 320 +1 386 +1 452 +1 518 +1 584 +1 650 +1 716 +1 782 +1 848 +1 914 +1 980 +1 1046 +1 1112 +1 1178 +1 1244 +1 1310 +1 62 +1 128 +1 194 +1 260 +1 326 +1 392 +1 458 +1 524 +1 590 +1 656 +1 722 +1 788 +1 854 +1 920 +1 986 +1 1052 +1 1118 +1 1184 +1 1250 +1 1316 = 220; * comptage total de l
-3 -4 0
-3 -5 0
-4 -5 0
-1 -2 0
-2 -5 0
-1 -4 0
-5 1 0
-4 2 0
-69 -70 0
-69 -71 0
-70 -71 0
-67 -68 0
-68 -71 0
-67 -70 0
-71 67 0
-70 68 0
-135 -136 0
-135 -137 0
-136 -137 0
-133 -134 0
-134 -137 0
-133 -136 0
-137 133 0
-136 134 0
-201 -202 0
-201 -203 0
-202 -203 0
-199 -200 0
-200 -203 0
-199 -202 0
-203 199 0
-202 200 0
-267 -268 0
-267 -269 0
-268 -269 0
-265 -266 0
-266 -269 0
-265 -268 0
-269 265 0
-268 266 0
-333 -334 0
-333 -335 0
-334 -335 0
-331 -332 0
-332 -335 0
-331 -334 0
-335 331 0
-334 332 0
-399 -400 0
-399 -401 0
-400 -401 0
-397 -398 0
-398 -401 0
-397 -400 0
-401 397 0
-400 398 0
-465 -466 0
-465 -467 0
-466 -467 0
-463 -464 0
-464 -467 0
-463 -466 0
-467 463 0
-466 464 0
-531 -532 0
-531 -533 0
-532 -533 0
-529 -530 0
-530 -533 0
-529 -532 0
-533 529 0
-532 530 0
-597 -598 0
-597 -599 0
-598 -599 0
-595 -596 0
-596 -599 0
-595 -598 0
-599 595 0
-598 596 0
-663 -664 0
-663 -665 0
-664 -665 0
-661 -662 0
-662 -665 0
-661 -664 0
-665 661 0
-664 662 0
-729 -730 0
-729 -731 0
-730 -731 0
-727 -728 0
-728 -731 0
-727 -730 0
-731 727 0
-730 728 0
-795 -796 0
-795 -797 0
-796 -797 0
-793 -794 0
-794 -797 0
-793 -796 0
-797 793 0
-796 794 0
-861 -862 0
-861 -863 0
-862 -863 0
-859 -860 0
-860 -863 0
-859 -862 0
-863 859 0
-862 860 0
-927 -928 0
-927 -929 0
-928 -929 0
-925 -926 0
-926 -929 0
-925 -928 0
-929 925 0
-928 926 0
-993 -994 0
-993 -995 0
-994 -995 0
-991 -992 0
-992 -995 0
-991 -994 0
-995 991 0
-994 992 0
-1059 -1060 0
-1059 -1061 0
-1060 -1061 0
-1057 -1058 0
-1058 -1061 0
-1057 -1060 0
-1061 1057 0
-1060 1058 0
-1125 -1126 0
-1125 -1127 0
-1126 -1127 0
-1123 -1124 0
-1124 -1127 0
-1123 -1126 0
-1127 1123 0
-1126 1124 0
-1191 -1192 0
-1191 -1193 0
-1192 -1193 0
-1189 -1190 0
-1190 -1193 0
-1189 -1192 0
-1193 1189 0
-1192 1190 0
-1257 -1258 0
-1257 -1259 0
-1258 -1259 0
-1255 -1256 0
-1256 -1259 0
-1255 -1258 0
-1259 1255 0
-1258 1256 0
-9 -10 0
-9 -11 0
-10 -11 0
-7 -8 0
-8 -11 0
-7 -10 0
-11 7 0
-10 8 0
-75 -76 0
-75 -77 0
-76 -77 0
-73 -74 0
-74 -77 0
-73 -76 0
-77 73 0
-76 74 0
-141 -142 0
-141 -143 0
-142 -143 0
-139 -140 0
-140 -143 0
-139 -142 0
-143 139 0
-142 140 0
-207 -208 0
-207 -209 0
-208 -209 0
-205 -206 0
-206 -209 0
-205 -208 0
-209 205 0
-208 206 0
-273 -274 0
-273 -275 0
-274 -275 0
-271 -272 0
-272 -275 0
-271 -274 0
-275 271 0
-274 272 0
-339 -340 0
-339 -341 0
-340 -341 0
-337 -338 0
-338 -341 0
-337 -340 0
-341 337 0
-340 338 0
-405 -406 0
-405 -407 0
-406 -407 0
-403 -404 0
-404 -407 0
-403 -406 0
-407 403 0
-406 404 0
-471 -472 0
-471 -473 0
-472 -473 0
-469 -470 0
-470 -473 0
-469 -472 0
-473 469 0
-472 470 0
-537 -538 0
-537 -539 0
-538 -539 0
-535 -536 0
-536 -539 0
-535 -538 0
-539 535 0
-538 536 0
-603 -604 0
-603 -605 0
-604 -605 0
-601 -602 0
-602 -605 0
-601 -604 0
-605 601 0
-604 602 0
-669 -670 0
-669 -671 0
-670 -671 0
-667 -668 0
-668 -671 0
-667 -670 0
-671 667 0
-670 668 0
-735 -736 0
-735 -737 0
-736 -737 0
-733 -734 0
-734 -737 0
-733 -736 0
-737 733 0
-736 734 0
-801 -802 0
-801 -803 0
-802 -803 0
-799 -800 0
-800 -803 0
-799 -802 0
-803 799 0
-802 800 0
-867 -868 0
-867 -869 0
-868 -869 0
-865 -866 0
-866 -869 0
-865 -868 0
-869 865 0
-868 866 0
-933 -934 0
-933 -935 0
-934 -935 0
-931 -932 0
-932 -935 0
-931 -934 0
-935 931 0
-934 932 0
-999 -1000 0
-999 -1001 0
-1000 -1001 0
-997 -998 0
-998 -1001 0
-997 -1000 0
-1001 997 0
-1000 998 0
-1065 -1066 0
-1065 -1067 0
-1066 -1067 0
-1063 -1064 0
-1064 -1067 0
-1063 -1066 0
-1067 1063 0
-1066 1064 0
-1131 -1132 0
-1131 -1133 0
-1132 -1133 0
-1129 -1130 0
-1130 -1133 0
-1129 -1132 0
-1133 1129 0
-1132 1130 0
-1197 -1198 0
-1197 -1199 0
-1198 -1199 0
-1195 -1196 0
-1196 -1199 0
-1195 -1198 0
-1199 1195 0
-1198 1196 0
-1263 -1264 0
-1263 -1265 0
-1264 -1265 0
-1261 -1262 0
-1262 -1265 0
-1261 -1264 0
-1265 1261 0
-1264 1262 0
-15 -16 0
-15 -17 0
-16 -17 0
-13 -14 0
-14 -17 0
-13 -16 0
-17 13 0
-16 14 0
-81 -82 0
-81 -83 0
-82 -83 0
-79 -80 0
-80 -83 0
-79 -82 0
-83 79 0
-82 80 0
-147 -148 0
-147 -149 0
-148 -149 0
-145 -146 0
-146 -149 0
-145 -148 0
-149 145 0
-148 146 0
-213 -214 0
-213 -215 0
-214 -215 0
-211 -212 0
-212 -215 0
-211 -214 0
-215 211 0
-214 212 0
-279 -280 0
-279 -281 0
-280 -281 0
-277 -278 0
-278 -281 0
-277 -280 0
-281 277 0
-280 278 0
-345 -346 0
-345 -347 0
-346 -347 0
-343 -344 0
-344 -347 0
-343 -346 0
-347 343 0
-346 344 0
-411 -412 0
-411 -413 0
-412 -413 0
-409 -410 0
-410 -413 0
-409 -412 0
-413 409 0
-412 410 0
-477 -478 0
-477 -479 0
-478 -479 0
-475 -476 0
-476 -479 0
-475 -478 0
-479 475 0
-478 476 0
-543 -544 0
-543 -545 0
-544 -545 0
-541 -542 0
-542 -545 0
-541 -544 0
-545 541 0
-544 542 0
-609 -610 0
-609 -611 0
-610 -611 0
-607 -608 0
-608 -611 0
-607 -610 0
-611 607 0
-610 608 0
-675 -676 0
-675 -677 0
-676 -677 0
-673 -674 0
-674 -677 0
-673 -676 0
-677 673 0
-676 674 0
-741 -742 0
-741 -743 0
-742 -743 0
-739 -740 0
-740 -743 0
-739 -742 0
-743 739 0
-742 740 0
-807 -808 0
-807 -809 0
-808 -809 0
-805 -806 0
-806 -809 0
-805 -808 0
-809 805 0
-808 806 0
-873 -874 0
-873 -875 0
-874 -875 0
-871 -872 0
-872 -875 0
-871 -874 0
-875 871 0
-874 872 0
-939 -940 0
-939 -941 0
-940 -941 0
-937 -938 0
-938 -941 0
-937 -940 0
-941 937 0
-940 938 0
-1005 -1006 0
-1005 -1007 0
-1006 -1007 0
-1003 -1004 0
-1004 -1007 0
-1003 -1006 0
-1007 1003 0
-1006 1004 0
-1071 -1072 0
-1071 -1073 0
-1072 -1073 0
-1069 -1070 0
-1070 -1073 0
-1069 -1072 0
-1073 1069 0
-1072 1070 0
-1137 -1138 0
-1137 -1139 0
-1138 -1139 0
-1135 -1136 0
-1136 -1139 0
-1135 -1138 0
-1139 1135 0
-1138 1136 0
-1203 -1204 0
-1203 -1205 0
-1204 -1205 0
-1201 -1202 0
-1202 -1205 0
-1201 -1204 0
-1205 1201 0
-1204 1202 0
-1269 -1270 0
-1269 -1271 0
-1270 -1271 0
-1267 -1268 0
-1268 -1271 0
-1267 -1270 0
-1271 1267 0
-1270 1268 0
-21 -22 0
-21 -23 0
-22 -23 0
-19 -20 0
-20 -23 0
-19 -22 0
-23 19 0
-22 20 0
-87 -88 0
-87 -89 0
-88 -89 0
-85 -86 0
-86 -89 0
-85 -88 0
-89 85 0
-88 86 0
-153 -154 0
-153 -155 0
-154 -155 0
-151 -152 0
-152 -155 0
-151 -154 0
-155 151 0
-154 152 0
-219 -220 0
-219 -221 0
-220 -221 0
-217 -218 0
-218 -221 0
-217 -220 0
-221 217 0
-220 218 0
-285 -286 0
-285 -287 0
-286 -287 0
-283 -284 0
-284 -287 0
-283 -286 0
-287 283 0
-286 284 0
-351 -352 0
-351 -353 0
-352 -353 0
-349 -350 0
-350 -353 0
-349 -352 0
-353 349 0
-352 350 0
-417 -418 0
-417 -419 0
-418 -419 0
-415 -416 0
-416 -419 0
-415 -418 0
-419 415 0
-418 416 0
-483 -484 0
-483 -485 0
-484 -485 0
-481 -482 0
-482 -485 0
-481 -484 0
-485 481 0
-484 482 0
-549 -550 0
-549 -551 0
-550 -551 0
-547 -548 0
-548 -551 0
-547 -550 0
-551 547 0
-550 548 0
-615 -616 0
-615 -617 0
-616 -617 0
-613 -614 0
-614 -617 0
-613 -616 0
-617 613 0
-616 614 0
-681 -682 0
-681 -683 0
-682 -683 0
-679 -680 0
-680 -683 0
-679 -682 0
-683 679 0
-682 680 0
-747 -748 0
-747 -749 0
-748 -749 0
-745 -746 0
-746 -749 0
-745 -748 0
-749 745 0
-748 746 0
-813 -814 0
-813 -815 0
-814 -815 0
-811 -812 0
-812 -815 0
-811 -814 0
-815 811 0
-814 812 0
-879 -880 0
-879 -881 0
-880 -881 0
-877 -878 0
-878 -881 0
-877 -880 0
-881 877 0
-880 878 0
-945 -946 0
-945 -947 0
-946 -947 0
-943 -944 0
-944 -947 0
-943 -946 0
-947 943 0
-946 944 0
-1011 -1012 0
-1011 -1013 0
-1012 -1013 0
-1009 -1010 0
-1010 -1013 0
-1009 -1012 0
-1013 1009 0
-1012 1010 0
-1077 -1078 0
-1077 -1079 0
-1078 -1079 0
-1075 -1076 0
-1076 -1079 0
-1075 -1078 0
-1079 1075 0
-1078 1076 0
-1143 -1144 0
-1143 -1145 0
-1144 -1145 0
-1141 -1142 0
-1142 -1145 0
-1141 -1144 0
-1145 1141 0
-1144 1142 0
-1209 -1210 0
-1209 -1211 0
-1210 -1211 0
-1207 -1208 0
-1208 -1211 0
-1207 -1210 0
-1211 1207 0
-1210 1208 0
-1275 -1276 0
-1275 -1277 0
-1276 -1277 0
-1273 -1274 0
-1274 -1277 0
-1273 -1276 0
-1277 1273 0
-1276 1274 0
-27 -28 0
-27 -29 0
-28 -29 0
-25 -26 0
-26 -29 0
-25 -28 0
-29 25 0
-28 26 0
-93 -94 0
-93 -95 0
-94 -95 0
-91 -92 0
-92 -95 0
-91 -94 0
-95 91 0
-94 92 0
-159 -160 0
-159 -161 0
-160 -161 0
-157 -158 0
-158 -161 0
-157 -160 0
-161 157 0
-160 158 0
-225 -226 0
-225 -227 0
-226 -227 0
-223 -224 0
-224 -227 0
-223 -226 0
-227 223 0
-226 224 0
-291 -292 0
-291 -293 0
-292 -293 0
-289 -290 0
-290 -293 0
-289 -292 0
-293 289 0
-292 290 0
-357 -358 0
-357 -359 0
-358 -359 0
-355 -356 0
-356 -359 0
-355 -358 0
-359 355 0
-358 356 0
-423 -424 0
-423 -425 0
-424 -425 0
-421 -422 0
-422 -425 0
-421 -424 0
-425 421 0
-424 422 0
-489 -490 0
-489 -491 0
-490 -491 0
-487 -488 0
-488 -491 0
-487 -490 0
-491 487 0
-490 488 0
-555 -556 0
-555 -557 0
-556 -557 0
-553 -554 0
-554 -557 0
-553 -556 0
-557 553 0
-556 554 0
-621 -622 0
-621 -623 0
-622 -623 0
-619 -620 0
-620 -623 0
-619 -622 0
-623 619 0
-622 620 0
-687 -688 0
-687 -689 0
-688 -689 0
-685 -686 0
-686 -689 0
-685 -688 0
-689 685 0
-688 686 0
-753 -754 0
-753 -755 0
-754 -755 0
-751 -752 0
-752 -755 0
-751 -754 0
-755 751 0
-754 752 0
-819 -820 0
-819 -821 0
-820 -821 0
-817 -818 0
-818 -821 0
-817 -820 0
-821 817 0
-820 818 0
-885 -886 0
-885 -887 0
-886 -887 0
-883 -884 0
-884 -887 0
-883 -886 0
-887 883 0
-886 884 0
-951 -952 0
-951 -953 0
-952 -953 0
-949 -950 0
-950 -953 0
-949 -952 0
-953 949 0
-952 950 0
-1017 -1018 0
-1017 -1019 0
-1018 -1019 0
-1015 -1016 0
-1016 -1019 0
-1015 -1018 0
-1019 1015 0
-1018 1016 0
-1083 -1084 0
-1083 -1085 0
-1084 -1085 0
-1081 -1082 0
-1082 -1085 0
-1081 -1084 0
-1085 1081 0
-1084 1082 0
-1149 -1150 0
-1149 -1151 0
-1150 -1151 0
-1147 -1148 0
-1148 -1151 0
-1147 -1150 0
-1151 1147 0
-1150 1148 0
-1215 -1216 0
-1215 -1217 0
-1216 -1217 0
-1213 -1214 0
-1214 -1217 0
-1213 -1216 0
-1217 1213 0
-1216 1214 0
-1281 -1282 0
-1281 -1283 0
-1282 -1283 0
-1279 -1280 0
-1280 -1283 0
-1279 -1282 0
-1283 1279 0
-1282 1280 0
-33 -34 0
-33 -35 0
-34 -35 0
-31 -32 0
-32 -35 0
-31 -34 0
-35 31 0
-34 32 0
-99 -100 0
-99 -101 0
-100 -101 0
-97 -98 0
-98 -101 0
-97 -100 0
-101 97 0
-100 98 0
-165 -166 0
-165 -167 0
-166 -167 0
-163 -164 0
-164 -167 0
-163 -166 0
-167 163 0
-166 164 0
-231 -232 0
-231 -233 0
-232 -233 0
-229 -230 0
-230 -233 0
-229 -232 0
-233 229 0
-232 230 0
-297 -298 0
-297 -299 0
-298 -299 0
-295 -296 0
-296 -299 0
-295 -298 0
-299 295 0
-298 296 0
-363 -364 0
-363 -365 0
-364 -365 0
-361 -362 0
-362 -365 0
-361 -364 0
-365 361 0
-364 362 0
-429 -430 0
-429 -431 0
-430 -431 0
-427 -428 0
-428 -431 0
-427 -430 0
-431 427 0
-430 428 0
-495 -496 0
-495 -497 0
-496 -497 0
-493 -494 0
-494 -497 0
-493 -496 0
-497 493 0
-496 494 0
-561 -562 0
-561 -563 0
-562 -563 0
-559 -560 0
-560 -563 0
-559 -562 0
-563 559 0
-562 560 0
-627 -628 0
-627 -629 0
-628 -629 0
-625 -626 0
-626 -629 0
-625 -628 0
-629 625 0
-628 626 0
-693 -694 0
-693 -695 0
-694 -695 0
-691 -692 0
-692 -695 0
-691 -694 0
-695 691 0
-694 692 0
-759 -760 0
-759 -761 0
-760 -761 0
-757 -758 0
-758 -761 0
-757 -760 0
-761 757 0
-760 758 0
-825 -826 0
-825 -827 0
-826 -827 0
-823 -824 0
-824 -827 0
-823 -826 0
-827 823 0
-826 824 0
-891 -892 0
-891 -893 0
-892 -893 0
-889 -890 0
-890 -893 0
-889 -892 0
-893 889 0
-892 890 0
-957 -958 0
-957 -959 0
-958 -959 0
-955 -956 0
-956 -959 0
-955 -958 0
-959 955 0
-958 956 0
-1023 -1024 0
-1023 -1025 0
-1024 -1025 0
-1021 -1022 0
-1022 -1025 0
-1021 -1024 0
-1025 1021 0
-1024 1022 0
-1089 -1090 0
-1089 -1091 0
-1090 -1091 0
-1087 -1088 0
-1088 -1091 0
-1087 -1090 0
-1091 1087 0
-1090 1088 0
-1155 -1156 0
-1155 -1157 0
-1156 -1157 0
-1153 -1154 0
-1154 -1157 0
-1153 -1156 0
-1157 1153 0
-1156 1154 0
-1221 -1222 0
-1221 -1223 0
-1222 -1223 0
-1219 -1220 0
-1220 -1223 0
-1219 -1222 0
-1223 1219 0
-1222 1220 0
-1287 -1288 0
-1287 -1289 0
-1288 -1289 0
-1285 -1286 0
-1286 -1289 0
-1285 -1288 0
-1289 1285 0
-1288 1286 0
-39 -40 0
-39 -41 0
-40 -41 0
-37 -38 0
-38 -41 0
-37 -40 0
-41 37 0
-40 38 0
-105 -106 0
-105 -107 0
-106 -107 0
-103 -104 0
-104 -107 0
-103 -106 0
-107 103 0
-106 104 0
-171 -172 0
-171 -173 0
-172 -173 0
-169 -170 0
-170 -173 0
-169 -172 0
-173 169 0
-172 170 0
-237 -238 0
-237 -239 0
-238 -239 0
-235 -236 0
-236 -239 0
-235 -238 0
-239 235 0
-238 236 0
-303 -304 0
-303 -305 0
-304 -305 0
-301 -302 0
-302 -305 0
-301 -304 0
-305 301 0
-304 302 0
-369 -370 0
-369 -371 0
-370 -371 0
-367 -368 0
-368 -371 0
-367 -370 0
-371 367 0
-370 368 0
-435 -436 0
-435 -437 0
-436 -437 0
-433 -434 0
-434 -437 0
-433 -436 0
-437 433 0
-436 434 0
-501 -502 0
-501 -503 0
-502 -503 0
-499 -500 0
-500 -503 0
-499 -502 0
-503 499 0
-502 500 0
-567 -568 0
-567 -569 0
-568 -569 0
-565 -566 0
-566 -569 0
-565 -568 0
-569 565 0
-568 566 0
-633 -634 0
-633 -635 0
-634 -635 0
-631 -632 0
-632 -635 0
-631 -634 0
-635 631 0
-634 632 0
-699 -700 0
-699 -701 0
-700 -701 0
-697 -698 0
-698 -701 0
-697 -700 0
-701 697 0
-700 698 0
-765 -766 0
-765 -767 0
-766 -767 0
-763 -764 0
-764 -767 0
-763 -766 0
-767 763 0
-766 764 0
-831 -832 0
-831 -833 0
-832 -833 0
-829 -830 0
-830 -833 0
-829 -832 0
-833 829 0
-832 830 0
-897 -898 0
-897 -899 0
-898 -899 0
-895 -896 0
-896 -899 0
-895 -898 0
-899 895 0
-898 896 0
-963 -964 0
-963 -965 0
-964 -965 0
-961 -962 0
-962 -965 0
-961 -964 0
-965 961 0
-964 962 0
-1029 -1030 0
-1029 -1031 0
-1030 -1031 0
-1027 -1028 0
-1028 -1031 0
-1027 -1030 0
-1031 1027 0
-1030 1028 0
-1095 -1096 0
-1095 -1097 0
-1096 -1097 0
-1093 -1094 0
-1094 -1097 0
-1093 -1096 0
-1097 1093 0
-1096 1094 0
-1161 -1162 0
-1161 -1163 0
-1162 -1163 0
-1159 -1160 0
-1160 -1163 0
-1159 -1162 0
-1163 1159 0
-1162 1160 0
-1227 -1228 0
-1227 -1229 0
-1228 -1229 0
-1225 -1226 0
-1226 -1229 0
-1225 -1228 0
-1229 1225 0
-1228 1226 0
-1293 -1294 0
-1293 -1295 0
-1294 -1295 0
-1291 -1292 0
-1292 -1295 0
-1291 -1294 0
-1295 1291 0
-1294 1292 0
-45 -46 0
-45 -47 0
-46 -47 0
-43 -44 0
-44 -47 0
-43 -46 0
-47 43 0
-46 44 0
-111 -112 0
-111 -113 0
-112 -113 0
-109 -110 0
-110 -113 0
-109 -112 0
-113 109 0
-112 110 0
-177 -178 0
-177 -179 0
-178 -179 0
-175 -176 0
-176 -179 0
-175 -178 0
-179 175 0
-178 176 0
-243 -244 0
-243 -245 0
-244 -245 0
-241 -242 0
-242 -245 0
-241 -244 0
-245 241 0
-244 242 0
-309 -310 0
-309 -311 0
-310 -311 0
-307 -308 0
-308 -311 0
-307 -310 0
-311 307 0
-310 308 0
-375 -376 0
-375 -377 0
-376 -377 0
-373 -374 0
-374 -377 0
-373 -376 0
-377 373 0
-376 374 0
-441 -442 0
-441 -443 0
-442 -443 0
-439 -440 0
-440 -443 0
-439 -442 0
-443 439 0
-442 440 0
-507 -508 0
-507 -509 0
-508 -509 0
-505 -506 0
-506 -509 0
-505 -508 0
-509 505 0
-508 506 0
-573 -574 0
-573 -575 0
-574 -575 0
-571 -572 0
-572 -575 0
-571 -574 0
-575 571 0
-574 572 0
-639 -640 0
-639 -641 0
-640 -641 0
-637 -638 0
-638 -641 0
-637 -640 0
-641 637 0
-640 638 0
-705 -706 0
-705 -707 0
-706 -707 0
-703 -704 0
-704 -707 0
-703 -706 0
-707 703 0
-706 704 0
-771 -772 0
-771 -773 0
-772 -773 0
-769 -770 0
-770 -773 0
-769 -772 0
-773 769 0
-772 770 0
-837 -838 0
-837 -839 0
-838 -839 0
-835 -836 0
-836 -839 0
-835 -838 0
-839 835 0
-838 836 0
-903 -904 0
-903 -905 0
-904 -905 0
-901 -902 0
-902 -905 0
-901 -904 0
-905 901 0
-904 902 0
-969 -970 0
-969 -971 0
-970 -971 0
-967 -968 0
-968 -971 0
-967 -970 0
-971 967 0
-970 968 0
-1035 -1036 0
-1035 -1037 0
-1036 -1037 0
-1033 -1034 0
-1034 -1037 0
-1033 -1036 0
-1037 1033 0
-1036 1034 0
-1101 -1102 0
-1101 -1103 0
-1102 -1103 0
-1099 -1100 0
-1100 -1103 0
-1099 -1102 0
-1103 1099 0
-1102 1100 0
-1167 -1168 0
-1167 -1169 0
-1168 -1169 0
-1165 -1166 0
-1166 -1169 0
-1165 -1168 0
-1169 1165 0
-1168 1166 0
-1233 -1234 0
-1233 -1235 0
-1234 -1235 0
-1231 -1232 0
-1232 -1235 0
-1231 -1234 0
-1235 1231 0
-1234 1232 0
-1299 -1300 0
-1299 -1301 0
-1300 -1301 0
-1297 -1298 0
-1298 -1301 0
-1297 -1300 0
-1301 1297 0
-1300 1298 0
-51 -52 0
-51 -53 0
-52 -53 0
-49 -50 0
-50 -53 0
-49 -52 0
-53 49 0
-52 50 0
-117 -118 0
-117 -119 0
-118 -119 0
-115 -116 0
-116 -119 0
-115 -118 0
-119 115 0
-118 116 0
-183 -184 0
-183 -185 0
-184 -185 0
-181 -182 0
-182 -185 0
-181 -184 0
-185 181 0
-184 182 0
-249 -250 0
-249 -251 0
-250 -251 0
-247 -248 0
-248 -251 0
-247 -250 0
-251 247 0
-250 248 0
-315 -316 0
-315 -317 0
-316 -317 0
-313 -314 0
-314 -317 0
-313 -316 0
-317 313 0
-316 314 0
-381 -382 0
-381 -383 0
-382 -383 0
-379 -380 0
-380 -383 0
-379 -382 0
-383 379 0
-382 380 0
-447 -448 0
-447 -449 0
-448 -449 0
-445 -446 0
-446 -449 0
-445 -448 0
-449 445 0
-448 446 0
-513 -514 0
-513 -515 0
-514 -515 0
-511 -512 0
-512 -515 0
-511 -514 0
-515 511 0
-514 512 0
-579 -580 0
-579 -581 0
-580 -581 0
-577 -578 0
-578 -581 0
-577 -580 0
-581 577 0
-580 578 0
-645 -646 0
-645 -647 0
-646 -647 0
-643 -644 0
-644 -647 0
-643 -646 0
-647 643 0
-646 644 0
-711 -712 0
-711 -713 0
-712 -713 0
-709 -710 0
-710 -713 0
-709 -712 0
-713 709 0
-712 710 0
-777 -778 0
-777 -779 0
-778 -779 0
-775 -776 0
-776 -779 0
-775 -778 0
-779 775 0
-778 776 0
-843 -844 0
-843 -845 0
-844 -845 0
-841 -842 0
-842 -845 0
-841 -844 0
-845 841 0
-844 842 0
-909 -910 0
-909 -911 0
-910 -911 0
-907 -908 0
-908 -911 0
-907 -910 0
-911 907 0
-910 908 0
-975 -976 0
-975 -977 0
-976 -977 0
-973 -974 0
-974 -977 0
-973 -976 0
-977 973 0
-976 974 0
-1041 -1042 0
-1041 -1043 0
-1042 -1043 0
-1039 -1040 0
-1040 -1043 0
-1039 -1042 0
-1043 1039 0
-1042 1040 0
-1107 -1108 0
-1107 -1109 0
-1108 -1109 0
-1105 -1106 0
-1106 -1109 0
-1105 -1108 0
-1109 1105 0
-1108 1106 0
-1173 -1174 0
-1173 -1175 0
-1174 -1175 0
-1171 -1172 0
-1172 -1175 0
-1171 -1174 0
-1175 1171 0
-1174 1172 0
-1239 -1240 0
-1239 -1241 0
-1240 -1241 0
-1237 -1238 0
-1238 -1241 0
-1237 -1240 0
-1241 1237 0
-1240 1238 0
-1305 -1306 0
-1305 -1307 0
-1306 -1307 0
-1303 -1304 0
-1304 -1307 0
-1303 -1306 0
-1307 1303 0
-1306 1304 0
-57 -58 0
-57 -59 0
-58 -59 0
-55 -56 0
-56 -59 0
-55 -58 0
-59 55 0
-58 56 0
-123 -124 0
-123 -125 0
-124 -125 0
-121 -122 0
-122 -125 0
-121 -124 0
-125 121 0
-124 122 0
-189 -190 0
-189 -191 0
-190 -191 0
-187 -188 0
-188 -191 0
-187 -190 0
-191 187 0
-190 188 0
-255 -256 0
-255 -257 0
-256 -257 0
-253 -254 0
-254 -257 0
-253 -256 0
-257 253 0
-256 254 0
-321 -322 0
-321 -323 0
-322 -323 0
-319 -320 0
-320 -323 0
-319 -322 0
-323 319 0
-322 320 0
-387 -388 0
-387 -389 0
-388 -389 0
-385 -386 0
-386 -389 0
-385 -388 0
-389 385 0
-388 386 0
-453 -454 0
-453 -455 0
-454 -455 0
-451 -452 0
-452 -455 0
-451 -454 0
-455 451 0
-454 452 0
-519 -520 0
-519 -521 0
-520 -521 0
-517 -518 0
-518 -521 0
-517 -520 0
-521 517 0
-520 518 0
-585 -586 0
-585 -587 0
-586 -587 0
-583 -584 0
-584 -587 0
-583 -586 0
-587 583 0
-586 584 0
-651 -652 0
-651 -653 0
-652 -653 0
-649 -650 0
-650 -653 0
-649 -652 0
-653 649 0
-652 650 0
-717 -718 0
-717 -719 0
-718 -719 0
-715 -716 0
-716 -719 0
-715 -718 0
-719 715 0
-718 716 0
-783 -784 0
-783 -785 0
-784 -785 0
-781 -782 0
-782 -785 0
-781 -784 0
-785 781 0
-784 782 0
-849 -850 0
-849 -851 0
-850 -851 0
-847 -848 0
-848 -851 0
-847 -850 0
-851 847 0
-850 848 0
-915 -916 0
-915 -917 0
-916 -917 0
-913 -914 0
-914 -917 0
-913 -916 0
-917 913 0
-916 914 0
-981 -982 0
-981 -983 0
-982 -983 0
-979 -980 0
-980 -983 0
-979 -982 0
-983 979 0
-982 980 0
-1047 -1048 0
-1047 -1049 0
-1048 -1049 0
-1045 -1046 0
-1046 -1049 0
-1045 -1048 0
-1049 1045 0
-1048 1046 0
-1113 -1114 0
-1113 -1115 0
-1114 -1115 0
-1111 -1112 0
-1112 -1115 0
-1111 -1114 0
-1115 1111 0
-1114 1112 0
-1179 -1180 0
-1179 -1181 0
-1180 -1181 0
-1177 -1178 0
-1178 -1181 0
-1177 -1180 0
-1181 1177 0
-1180 1178 0
-1245 -1246 0
-1245 -1247 0
-1246 -1247 0
-1243 -1244 0
-1244 -1247 0
-1243 -1246 0
-1247 1243 0
-1246 1244 0
-1311 -1312 0
-1311 -1313 0
-1312 -1313 0
-1309 -1310 0
-1310 -1313 0
-1309 -1312 0
-1313 1309 0
-1312 1310 0
-63 -64 0
-63 -65 0
-64 -65 0
-61 -62 0
-62 -65 0
-61 -64 0
-65 61 0
-64 62 0
-129 -130 0
-129 -131 0
-130 -131 0
-127 -128 0
-128 -131 0
-127 -130 0
-131 127 0
-130 128 0
-195 -196 0
-195 -197 0
-196 -197 0
-193 -194 0
-194 -197 0
-193 -196 0
-197 193 0
-196 194 0
-261 -262 0
-261 -263 0
-262 -263 0
-259 -260 0
-260 -263 0
-259 -262 0
-263 259 0
-262 260 0
-327 -328 0
-327 -329 0
-328 -329 0
-325 -326 0
-326 -329 0
-325 -328 0
-329 325 0
-328 326 0
-393 -394 0
-393 -395 0
-394 -395 0
-391 -392 0
-392 -395 0
-391 -394 0
-395 391 0
-394 392 0
-459 -460 0
-459 -461 0
-460 -461 0
-457 -458 0
-458 -461 0
-457 -460 0
-461 457 0
-460 458 0
-525 -526 0
-525 -527 0
-526 -527 0
-523 -524 0
-524 -527 0
-523 -526 0
-527 523 0
-526 524 0
-591 -592 0
-591 -593 0
-592 -593 0
-589 -590 0
-590 -593 0
-589 -592 0
-593 589 0
-592 590 0
-657 -658 0
-657 -659 0
-658 -659 0
-655 -656 0
-656 -659 0
-655 -658 0
-659 655 0
-658 656 0
-723 -724 0
-723 -725 0
-724 -725 0
-721 -722 0
-722 -725 0
-721 -724 0
-725 721 0
-724 722 0
-789 -790 0
-789 -791 0
-790 -791 0
-787 -788 0
-788 -791 0
-787 -790 0
-791 787 0
-790 788 0
-855 -856 0
-855 -857 0
-856 -857 0
-853 -854 0
-854 -857 0
-853 -856 0
-857 853 0
-856 854 0
-921 -922 0
-921 -923 0
-922 -923 0
-919 -920 0
-920 -923 0
-919 -922 0
-923 919 0
-922 920 0
-987 -988 0
-987 -989 0
-988 -989 0
-985 -986 0
-986 -989 0
-985 -988 0
-989 985 0
-988 986 0
-1053 -1054 0
-1053 -1055 0
-1054 -1055 0
-1051 -1052 0
-1052 -1055 0
-1051 -1054 0
-1055 1051 0
-1054 1052 0
-1119 -1120 0
-1119 -1121 0
-1120 -1121 0
-1117 -1118 0
-1118 -1121 0
-1117 -1120 0
-1121 1117 0
-1120 1118 0
-1185 -1186 0
-1185 -1187 0
-1186 -1187 0
-1183 -1184 0
-1184 -1187 0
-1183 -1186 0
-1187 1183 0
-1186 1184 0
-1251 -1252 0
-1251 -1253 0
-1252 -1253 0
-1249 -1250 0
-1250 -1253 0
-1249 -1252 0
-1253 1249 0
-1252 1250 0
-1317 -1318 0
-1317 -1319 0
-1318 -1319 0
-1315 -1316 0
-1316 -1319 0
-1315 -1318 0
-1319 1315 0
-1318 1316 0
-285 0
-286 0
-287 0
-286 0
-287 0
-285 0
-286 0
-287 0
-285 0
-283 0
284 0
-213 0
-279 0
-345 0
-219 0
-351 0
-225 0
-291 0
-357 0
-214 0
-280 0
-346 0
-220 0
-352 0
-226 0
-292 0
-358 0
-215 0
-281 0
-347 0
-221 0
-353 0
-227 0
-293 0
-359 0
-211 0
212 0
-277 0
278 0
-343 0
344 0
-217 0
218 0
-349 0
350 0
-223 0
224 0
-289 0
290 0
-355 0
356 0
-358 0
-359 0
-357 0
-358 0
-359 0
-357 0
285 351 417 291 423 297 363 429 0
-285 -351 0
-285 -417 0
-285 -291 0
-285 -423 0
-285 -297 0
-285 -363 0
-285 -429 0
-351 -417 0
-351 -291 0
-351 -423 0
-351 -297 0
-351 -363 0
-351 -429 0
-417 -291 0
-417 -423 0
-417 -297 0
-417 -363 0
-417 -429 0
-291 -423 0
-291 -297 0
-291 -363 0
-291 -429 0
-423 -297 0
-423 -363 0
-423 -429 0
-297 -363 0
-297 -429 0
-363 -429 0
-286 0
-352 0
-418 0
-292 0
-424 0
-298 0
-364 0
-430 0
-287 0
-353 0
-419 0
-293 0
-425 0
-299 0
-365 0
-431 0
-415 0
416 0
-421 0
422 0
-295 0
296 0
-361 0
362 0
-427 0
428 0
-430 0
-431 0
-429 0
-430 0
-431 0
-429 0
357 423 489 363 495 369 435 501 0
-357 -423 0
-357 -489 0
-357 -363 0
-357 -495 0
-357 -369 0
-357 -435 0
-357 -501 0
-423 -489 0
-423 -363 0
-423 -495 0
-423 -369 0
-423 -435 0
-423 -501 0
-489 -363 0
-489 -495 0
-489 -369 0
-489 -435 0
-489 -501 0
-363 -495 0
-363 -369 0
-363 -435 0
-363 -501 0
-495 -369 0
-495 -435 0
-495 -501 0
-369 -435 0
-369 -501 0
-435 -501 0
-358 0
-424 0
-490 0
-364 0
-496 0
-370 0
-436 0
-502 0
-359 0
-425 0
-491 0
-365 0
-497 0
-371 0
-437 0
-503 0
-487 0
488 0
-493 0
494 0
-367 0
368 0
-433 0
434 0
-499 0
500 0
-502 0
-503 0
-501 0
-502 0
-503 0
-501 0
-429 0
-495 0
-561 0
-435 0
-567 0
-441 0
-507 0
-573 0
-430 0
-496 0
-562 0
-436 0
-568 0
-442 0
-508 0
-574 0
-431 0
-497 0
-563 0
-437 0
-569 0
-443 0
-509 0
-575 0
-559 0
560 0
-565 0
566 0
-439 0
440 0
-505 0
506 0
-571 0
572 0
-574 0
-575 0
-573 0
-574 0
-575 0
-573 0
-501 0
-567 0
-633 0
-507 0
-639 0
-513 0
-579 0
-645 0
-502 0
-568 0
-634 0
-508 0
-640 0
-514 0
-580 0
-646 0
-503 0
-569 0
-635 0
-509 0
-641 0
-515 0
-581 0
-647 0
-631 0
632 0
-637 0
638 0
-511 0
512 0
-577 0
578 0
-643 0
644 0
-646 0
-647 0
-645 0
-646 0
-647 0
-645 0
-573 0
-639 0
-705 0
-579 0
-711 0
-585 0
-651 0
-717 0
-574 0
-640 0
-706 0
-580 0
-712 0
-586 0
-652 0
-718 0
-575 0
-641 0
-707 0
-581 0
-713 0
-587 0
-653 0
-719 0
-703 0
704 0
-709 0
710 0
-583 0
584 0
-649 0
650 0
-715 0
716 0
-718 0
-719 0
-717 0
-718 0
-719 0
-717 0
-645 0
-711 0
-777 0
-651 0
-783 0
-657 0
-723 0
-789 0
-646 0
-712 0
-778 0
-652 0
-784 0
-658 0
-724 0
-790 0
-647 0
-713 0
-779 0
-653 0
-785 0
-659 0
-725 0
-791 0
-775 0
776 0
-781 0
782 0
-655 0
656 0
-721 0
722 0
-787 0
788 0
-790 0
-791 0
-789 0
-790 0
-791 0
-789 0
-717 0
-783 0
-849 0
-723 0
-855 0
-718 0
-784 0
-850 0
-724 0
-856 0
-719 0
-785 0
-851 0
-725 0
-857 0
-847 0
848 0
-853 0
854 0
-856 0
-857 0
-855 0
-856 0
-857 0
-855 0
-783 0
-849 0
-915 0
-789 0
-921 0
-784 0
-850 0
-916 0
-790 0
-922 0
-785 0
-851 0
-917 0
-791 0
-923 0
-913 0
914 0
-919 0
920 0
-922 0
-923 0
-921 0
-922 0
-923 0
-921 0
849 915 981 855 987 0
-849 -915 0
-849 -981 0
-849 -855 0
-849 -987 0
-915 -981 0
-915 -855 0
-915 -987 0
-981 -855 0
-981 -987 0
-855 -987 0
-850 0
-916 0
-982 0
-856 0
-988 0
-851 0
-917 0
-983 0
-857 0
-989 0
-979 0
980 0
-985 0
986 0
-988 0
-989 0
-987 0
-988 0
-989 0
-987 0
